p tw 234 244
1 2
2 113
3 14
4 5
5 6
6 7
7 8
8 9
9 10
10 11
11 12
12 13
13 15
14 25
14 80
15 16
16 17
17 18
18 19
19 20
20 21
21 22
22 150
23 24
24 26
25 36
26 27
27 28
28 29
29 30
30 31
31 32
32 33
33 34
34 35
35 37
36 47
37 38
38 39
39 40
40 41
41 42
42 43
43 44
44 45
45 46
46 48
47 58
48 49
49 50
50 51
51 52
52 53
53 54
54 55
55 56
56 57
57 59
58 69
59 60
60 61
61 62
62 63
63 64
64 65
65 66
66 67
67 68
68 70
69 150
70 71
71 72
72 73
73 74
74 75
75 76
76 77
77 78
78 79
79 81
80 91
81 82
82 83
83 84
84 85
84 124
85 86
86 87
87 88
88 89
89 90
90 92
91 102
92 93
93 94
94 95
95 96
96 97
97 98
98 99
99 100
99 108
100 101
101 103
102 114
102 125
103 104
104 105
105 106
106 107
107 150
108 109
109 110
110 111
111 112
112 115
113 158
114 150
115 116
116 117
117 118
118 119
119 120
120 121
121 122
122 123
123 150
124 126
125 136
126 127
127 128
128 129
129 130
130 131
131 132
132 133
132 138
133 134
134 135
135 137
136 147
137 150
138 139
139 140
140 141
141 142
142 143
143 144
144 145
145 146
146 148
147 152
148 149
149 150
150 151
152 153
153 154
154 155
155 156
156 157
157 159
158 169
159 160
160 161
161 162
162 163
162 167
163 164
164 165
165 166
166 150
167 168
168 170
169 180
170 171
171 172
172 173
173 174
174 175
175 176
176 177
177 178
178 179
179 181
180 191
181 182
182 183
183 184
184 185
185 186
186 187
187 188
188 189
189 190
190 192
191 202
192 193
193 194
194 195
195 196
196 197
197 198
197 23
198 199
198 215
199 200
199 201
200 150
201 203
202 213
203 204
204 205
205 206
206 207
207 208
208 209
209 210
210 211
211 212
212 214
213 224
213 160
214 150
215 216
216 217
217 218
218 219
219 220
220 221
221 222
222 223
223 225
224 3
225 226
226 227
227 228
228 229
229 230
230 231
230 4
231 232
232 233
233 234
234 150
